NAME /Users/henri/Research/solvers/instances/idol-instances/robust/collection/cbp_Subramanyam_et_al_2020/CapBud_N20_15/models/uncertain_technology_matrix/
ROWS
 N  OBJ
 L  capacity
 L  c_3120
 L  c_3121
 L  c_3122
 L  c_3123
 L  c_3124
 L  c_3125
 L  c_3126
 L  c_3127
 L  c_3128
 L  c_3129
 L  c_3130
 L  c_3131
 L  c_3132
 L  c_3133
 L  c_3134
 L  c_3135
 L  c_3136
 L  c_3137
 L  c_3138
 L  c_3139
COLUMNS
    MARKER    'MARKER'                 'INTORG'
    x_0        OBJ        -7.68691
    x_0        c_3120     1
    x_0        capacity   1.53738
    x_1        OBJ        -3.90898
    x_1        c_3121     1
    x_1        capacity   0.781795
    x_2        OBJ        -0.605801
    x_2        c_3122     1
    x_2        capacity   0.12116
    x_3        OBJ        -7.03574
    x_3        c_3123     1
    x_3        capacity   1.40715
    x_4        OBJ        -0.963527
    x_4        c_3124     1
    x_4        capacity   0.192705
    x_5        OBJ        -8.05122
    x_5        c_3125     1
    x_5        capacity   1.61024
    x_6        OBJ        -2.05726
    x_6        c_3126     1
    x_6        capacity   0.411452
    x_7        OBJ        -1.15009
    x_7        c_3127     1
    x_7        capacity   0.230018
    x_8        OBJ        -6.6648
    x_8        c_3128     1
    x_8        capacity   1.33296
    x_9        OBJ        -8.73561
    x_9        c_3129     1
    x_9        capacity   1.74712
    x_10       OBJ        -7.01719
    x_10       c_3130     1
    x_10       capacity   1.40344
    x_11       OBJ        -4.26944
    x_11       c_3131     1
    x_11       capacity   0.853888
    x_12       OBJ        -6.66824
    x_12       c_3132     1
    x_12       capacity   1.33365
    x_13       OBJ        -2.71532
    x_13       c_3133     1
    x_13       capacity   0.543063
    x_14       OBJ        -8.17651
    x_14       c_3134     1
    x_14       capacity   1.6353
    x_15       OBJ        -0.184369
    x_15       c_3135     1
    x_15       capacity   0.0368737
    x_16       OBJ        -6.34147
    x_16       c_3136     1
    x_16       capacity   1.26829
    x_17       OBJ        -6.54757
    x_17       c_3137     1
    x_17       capacity   1.30951
    x_18       OBJ        -9.3058
    x_18       c_3138     1
    x_18       capacity   1.86116
    x_19       OBJ        -5.17655
    x_19       c_3139     1
    x_19       capacity   1.03531
    y_0        OBJ        -6.14953
    y_0        c_3120     1
    y_0        capacity   1.53738
    y_1        OBJ        -3.12718
    y_1        c_3121     1
    y_1        capacity   0.781795
    y_2        OBJ        -0.48464
    y_2        c_3122     1
    y_2        capacity   0.12116
    y_3        OBJ        -5.62859
    y_3        c_3123     1
    y_3        capacity   1.40715
    y_4        OBJ        -0.770822
    y_4        c_3124     1
    y_4        capacity   0.192705
    y_5        OBJ        -6.44098
    y_5        c_3125     1
    y_5        capacity   1.61024
    y_6        OBJ        -1.64581
    y_6        c_3126     1
    y_6        capacity   0.411452
    y_7        OBJ        -0.920073
    y_7        c_3127     1
    y_7        capacity   0.230018
    y_8        OBJ        -5.33184
    y_8        c_3128     1
    y_8        capacity   1.33296
    y_9        OBJ        -6.98848
    y_9        c_3129     1
    y_9        capacity   1.74712
    y_10       OBJ        -5.61375
    y_10       c_3130     1
    y_10       capacity   1.40344
    y_11       OBJ        -3.41555
    y_11       c_3131     1
    y_11       capacity   0.853888
    y_12       OBJ        -5.33459
    y_12       c_3132     1
    y_12       capacity   1.33365
    y_13       OBJ        -2.17225
    y_13       c_3133     1
    y_13       capacity   0.543063
    y_14       OBJ        -6.54121
    y_14       c_3134     1
    y_14       capacity   1.6353
    y_15       OBJ        -0.147495
    y_15       c_3135     1
    y_15       capacity   0.0368737
    y_16       OBJ        -5.07317
    y_16       c_3136     1
    y_16       capacity   1.26829
    y_17       OBJ        -5.23806
    y_17       c_3137     1
    y_17       capacity   1.30951
    y_18       OBJ        -7.44464
    y_18       c_3138     1
    y_18       capacity   1.86116
    y_19       OBJ        -4.14124
    y_19       c_3139     1
    y_19       capacity   1.03531
    MARKER    'MARKER'                 'INTEND'
RHS
    RHS       capacity   51.6312
    RHS       c_3120     1
    RHS       c_3121     1
    RHS       c_3122     1
    RHS       c_3123     1
    RHS       c_3124     1
    RHS       c_3125     1
    RHS       c_3126     1
    RHS       c_3127     1
    RHS       c_3128     1
    RHS       c_3129     1
    RHS       c_3130     1
    RHS       c_3131     1
    RHS       c_3132     1
    RHS       c_3133     1
    RHS       c_3134     1
    RHS       c_3135     1
    RHS       c_3136     1
    RHS       c_3137     1
    RHS       c_3138     1
    RHS       c_3139     1
BOUNDS
 LI BND       x_0        0
 UI BND       x_0        1
 LI BND       x_1        0
 UI BND       x_1        1
 LI BND       x_2        0
 UI BND       x_2        1
 LI BND       x_3        0
 UI BND       x_3        1
 LI BND       x_4        0
 UI BND       x_4        1
 LI BND       x_5        0
 UI BND       x_5        1
 LI BND       x_6        0
 UI BND       x_6        1
 LI BND       x_7        0
 UI BND       x_7        1
 LI BND       x_8        0
 UI BND       x_8        1
 LI BND       x_9        0
 UI BND       x_9        1
 LI BND       x_10       0
 UI BND       x_10       1
 LI BND       x_11       0
 UI BND       x_11       1
 LI BND       x_12       0
 UI BND       x_12       1
 LI BND       x_13       0
 UI BND       x_13       1
 LI BND       x_14       0
 UI BND       x_14       1
 LI BND       x_15       0
 UI BND       x_15       1
 LI BND       x_16       0
 UI BND       x_16       1
 LI BND       x_17       0
 UI BND       x_17       1
 LI BND       x_18       0
 UI BND       x_18       1
 LI BND       x_19       0
 UI BND       x_19       1
 LI BND       y_0        0
 UI BND       y_0        1
 LI BND       y_1        0
 UI BND       y_1        1
 LI BND       y_2        0
 UI BND       y_2        1
 LI BND       y_3        0
 UI BND       y_3        1
 LI BND       y_4        0
 UI BND       y_4        1
 LI BND       y_5        0
 UI BND       y_5        1
 LI BND       y_6        0
 UI BND       y_6        1
 LI BND       y_7        0
 UI BND       y_7        1
 LI BND       y_8        0
 UI BND       y_8        1
 LI BND       y_9        0
 UI BND       y_9        1
 LI BND       y_10       0
 UI BND       y_10       1
 LI BND       y_11       0
 UI BND       y_11       1
 LI BND       y_12       0
 UI BND       y_12       1
 LI BND       y_13       0
 UI BND       y_13       1
 LI BND       y_14       0
 UI BND       y_14       1
 LI BND       y_15       0
 UI BND       y_15       1
 LI BND       y_16       0
 UI BND       y_16       1
 LI BND       y_17       0
 UI BND       y_17       1
 LI BND       y_18       0
 UI BND       y_18       1
 LI BND       y_19       0
 UI BND       y_19       1
ENDATA
